(set-logic HORN)
(declare-fun inv ((_ BitVec 32) (_ BitVec 32) (_ BitVec 32) (_ BitVec 32) ) Bool)
(assert (forall ((m (_ BitVec 32)) (a (_ BitVec 32)) (j (_ BitVec 32)) (k (_ BitVec 32))) 
       (=> ( and ( or ( bvule a m ) ( = j (_ bv0 32) ) ) ( bvult j (_ bv1 32) ) ( = k (_ bv0 32) ) ) (inv m a j k))))
(assert (forall ((m (_ BitVec 32)) (a (_ BitVec 32)) (j (_ BitVec 32)) (k (_ BitVec 32)) (m! (_ BitVec 32)) (a! (_ BitVec 32)) (j! (_ BitVec 32)) (k! (_ BitVec 32))) 
       (=> (and (inv m a j k) ( or ( and ( = j! j ) ( bvult k (_ bv1 32) ) ( bvult m a! ) ( = m! a! ) ( = k! ( bvadd k (_ bv1 32) ) ) ) ( and ( = j! j ) ( bvult k (_ bv1 32) ) ( bvugt m a! ) ( = k! ( bvadd k (_ bv1 32) ) ) ) )) (inv m! a! j! k!))))
(assert (forall ((m (_ BitVec 32)) (a (_ BitVec 32)) (j (_ BitVec 32)) (k (_ BitVec 32))) 
       (=> (inv m a j k) ( or ( bvult k (_ bv1 32) ) ( bvult a m ) ( = j ( bvadd (_ bv1 32) ( bvnot (_ bv1 32) ) ) ) ))))
(check-sat)
